(set-logic QF_S)
(declare-fun var0 () String)
(declare-fun var1 () String)
(declare-fun var2 () String)
(declare-fun var3 () String)
(declare-fun var4 () String)
(declare-fun var5 () String)
(declare-fun var6 () String)
(declare-fun var7 () String)
(declare-fun var8 () String)
(declare-fun var9 () String)
(declare-fun var10 () String)
(declare-fun var11 () String)
(declare-fun var12 () String)
(declare-fun var13 () String)
(declare-fun var14 () String)
(declare-fun var15 () String)
(declare-fun var16 () String)
(declare-fun var17 () String)
(declare-fun var18 () String)
(declare-fun var19 () String)
(declare-fun var20 () String)
(declare-fun var21 () String)
(declare-fun var22 () String)
(declare-fun var23 () String)
(declare-fun var24 () String)
(declare-fun var25 () String)
(declare-fun var26 () String)
(declare-fun var27 () String)
(declare-fun var28 () String)
(declare-fun var29 () String)
(declare-fun var30 () String)
(declare-fun var31 () String)
(declare-fun var32 () String)
(declare-fun var33 () String)
(declare-fun var34 () String)
(declare-fun var35 () String)
(declare-fun var36 () String)
(declare-fun var37 () String)
(declare-fun var38 () String)
(declare-fun var39 () String)
(declare-fun var40 () String)
(declare-fun var41 () String)
(declare-fun var42 () String)
(declare-fun var43 () String)
(declare-fun var44 () String)
(declare-fun var45 () String)
(declare-fun var46 () String)
(declare-fun var47 () String)
(declare-fun var48 () String)
(declare-fun var49 () String)
(declare-fun var50 () String)
(declare-fun var51 () String)
(declare-fun var52 () String)
(declare-fun var53 () String)
(declare-fun var54 () String)
(declare-fun var55 () String)
(declare-fun var56 () String)
(declare-fun var57 () String)
(declare-fun var58 () String)
(declare-fun var59 () String)
(declare-fun var60 () String)
(assert (= var0 (Concat var1 var2)))
(assert (= var2 (Concat var3 var4)))
(assert (= var4 (Concat var5 var6)))
(assert (= var6 (Concat var7 var8)))
(assert (= var8 (Concat var9 var10)))
(assert (= var10 (Concat var11 var12)))
(assert (= var12 (Concat var13 var14)))
(assert (= var14 (Concat var15 var16)))
(assert (= var16 (Concat var17 var18)))
(assert (= var18 (Concat var19 var20)))
(assert (= var20 (Concat var21 var22)))
(assert (= var22 (Concat var23 var24)))
(assert (= var24 (Concat var25 var26)))
(assert (= var26 (Concat var27 var28)))
(assert (= var28 (Concat var29 var30)))
(assert (= var30 (Concat var31 var32)))
(assert (= var32 (Concat var33 var34)))
(assert (= var34 (Concat var35 var36)))
(assert (= var36 (Concat var37 var38)))
(assert (= var38 (Concat var39 var40)))
(assert (= var40 (Concat var41 var42)))
(assert (= var42 (Concat var43 var44)))
(assert (= var44 (Concat var45 var46)))
(assert (= var46 (Concat var47 var48)))
(assert (= var48 (Concat var49 var50)))
(assert (= var50 (Concat var51 var52)))
(assert (= var52 (Concat var53 var54)))
(assert (= var54 (Concat var55 var56)))
(assert (= var56 (Concat var57 var58)))
(assert (= var58 (Concat var59 var60)))
(assert (= var0 "solution"))
(assert (= "|" (CharAt var38 955)))
(assert (= ";" (CharAt var41 799)))
(assert (= "|" (CharAt var34 127)))
(assert (= "$" (CharAt var24 223)))
(assert (= "." (CharAt var56 292)))
(assert (= "Y" (CharAt var55 919)))
(assert (= ";" (CharAt var42 444)))
(assert (= "," (CharAt var31 744)))
(assert (= "}" (CharAt var23 686)))
(assert (= "." (CharAt var58 92)))
(assert (= "-" (CharAt var26 295)))
(assert (= "Z" (CharAt var38 597)))
(assert (= "*" (CharAt var26 287)))
(assert (= "P" (CharAt var19 739)))
(assert (= "o" (CharAt var10 472)))
(assert (= ">" (CharAt var14 266)))
(assert (= "\"" (CharAt var27 333)))
(assert (= "k" (CharAt var51 643)))
(assert (= "3" (CharAt var14 112)))
(assert (= "W" (CharAt var18 46)))
(assert (= "_" (CharAt var56 956)))
(assert (= "." (CharAt var41 604)))
(assert (= "p" (CharAt var8 621)))
(assert (= "o" (CharAt var40 308)))
(assert (= "-" (CharAt var5 227)))
(assert (= "_" (CharAt var57 106)))
(assert (= "2" (CharAt var53 561)))
(assert (= "E" (CharAt var28 633)))
(assert (= "X" (CharAt var36 508)))
(assert (= "~" (CharAt var30 661)))
(assert (= "e" (CharAt var3 289)))
(assert (= "\\" (CharAt var31 10)))
(assert (= "D" (CharAt var9 147)))
(assert (= "=" (CharAt var47 128)))
(assert (= "(" (CharAt var54 618)))
(assert (= "b" (CharAt var51 729)))
(assert (= "X" (CharAt var58 4)))
(assert (= "2" (CharAt var57 464)))
(assert (= "C" (CharAt var19 239)))
(assert (= "\"" (CharAt var4 745)))
(assert (= "1" (CharAt var20 966)))
(assert (= "(" (CharAt var6 339)))
(assert (= "[" (CharAt var52 753)))
(assert (= "l" (CharAt var54 278)))
(assert (= "K" (CharAt var58 426)))
(assert (= "g" (CharAt var53 781)))
(assert (= "o" (CharAt var39 955)))
(assert (= "$" (CharAt var42 746)))
(assert (= "<" (CharAt var54 505)))
(assert (= "Y" (CharAt var38 214)))
(assert (= ":" (CharAt var39 585)))
(assert (= "s" (CharAt var30 895)))
(assert (= "{" (CharAt var52 210)))
(assert (= "Z" (CharAt var44 767)))
(assert (= "?" (CharAt var59 287)))
(assert (= "J" (CharAt var59 825)))
(assert (= "Z" (CharAt var0 967)))
(assert (= "O" (CharAt var49 799)))
(assert (= "H" (CharAt var51 39)))
(assert (= "%" (CharAt var53 769)))
(assert (= "l" (CharAt var20 976)))
(assert (= "m" (CharAt var9 986)))
(assert (= "2" (CharAt var29 311)))
(assert (= "o" (CharAt var40 150)))
(assert (= "&" (CharAt var45 690)))
(assert (= "4" (CharAt var23 890)))
(assert (= "3" (CharAt var14 92)))
(assert (= "w" (CharAt var34 667)))
(assert (= "j" (CharAt var9 843)))
(assert (= "p" (CharAt var13 55)))
(assert (= ";" (CharAt var56 409)))
(assert (= "5" (CharAt var29 109)))
(assert (= "%" (CharAt var56 309)))
(assert (= "B" (CharAt var4 919)))
(assert (= "6" (CharAt var0 366)))
(assert (= "V" (CharAt var0 491)))
(assert (= "c" (CharAt var30 858)))
(assert (= "^" (CharAt var47 8)))
(assert (= "!" (CharAt var44 282)))
(assert (= "Z" (CharAt var10 375)))
(assert (= "|" (CharAt var27 1)))
(assert (= "H" (CharAt var19 82)))
(assert (= "'" (CharAt var32 422)))
(assert (= "q" (CharAt var48 486)))
(assert (= "1" (CharAt var31 950)))
(assert (= "I" (CharAt var55 781)))
(assert (= "\\" (CharAt var29 332)))
(assert (= "d" (CharAt var41 167)))
(assert (= "R" (CharAt var59 82)))
(assert (= "/" (CharAt var19 46)))
(assert (= "G" (CharAt var5 475)))
(assert (= "1" (CharAt var46 506)))
(assert (= "." (CharAt var22 70)))
(assert (= "x" (CharAt var37 35)))
(assert (= "7" (CharAt var31 55)))
(assert (= "L" (CharAt var25 176)))
(assert (= "&" (CharAt var13 113)))
(assert (= ">" (CharAt var30 13)))
(assert (= "l" (CharAt var58 522)))
(assert (= "p" (CharAt var4 904)))
(assert (= "r" (CharAt var20 817)))
(assert (= "B" (CharAt var1 371)))
(assert (= "O" (CharAt var59 368)))
(assert (= "!" (CharAt var47 894)))
(assert (= "x" (CharAt var44 889)))
(assert (= "6" (CharAt var16 774)))
(assert (= "{" (CharAt var11 59)))
(assert (= "C" (CharAt var7 152)))
(assert (= "U" (CharAt var13 806)))
(assert (= "$" (CharAt var35 136)))
(assert (= "U" (CharAt var51 444)))
(assert (= "q" (CharAt var46 341)))
(assert (= "F" (CharAt var7 989)))
(assert (= "z" (CharAt var10 826)))
(assert (= "X" (CharAt var2 124)))
(assert (= "m" (CharAt var51 103)))
(assert (= "J" (CharAt var14 689)))
(assert (= "*" (CharAt var4 155)))
(assert (= "M" (CharAt var8 994)))
(assert (= "<" (CharAt var29 61)))
(assert (= "=" (CharAt var5 351)))
(assert (= "S" (CharAt var60 743)))
(assert (= "V" (CharAt var19 78)))
(assert (= "[" (CharAt var23 900)))
(assert (= "?" (CharAt var0 960)))
(assert (= "Y" (CharAt var49 721)))
(assert (= "2" (CharAt var59 614)))
(assert (= "/" (CharAt var47 412)))
(assert (= "@" (CharAt var44 917)))
(assert (= "=" (CharAt var56 417)))
(assert (= "7" (CharAt var43 911)))
(assert (= "N" (CharAt var11 570)))
(assert (= "!" (CharAt var50 143)))
(assert (= "W" (CharAt var54 16)))
(assert (= "E" (CharAt var10 698)))
(assert (= "=" (CharAt var15 888)))
(assert (= "4" (CharAt var7 606)))
(assert (= "B" (CharAt var31 148)))
(assert (= "V" (CharAt var6 195)))
(assert (= "\\" (CharAt var32 235)))
(assert (= "F" (CharAt var58 720)))
(assert (= "^" (CharAt var22 648)))
(assert (= "4" (CharAt var21 710)))
(assert (= "O" (CharAt var26 154)))
(assert (= "c" (CharAt var40 687)))
(assert (= "," (CharAt var37 946)))
(assert (= "j" (CharAt var29 582)))
(assert (= "O" (CharAt var40 198)))
(assert (= "#" (CharAt var31 516)))
(assert (= "|" (CharAt var30 212)))
(assert (= "!" (CharAt var19 512)))
(assert (= "<" (CharAt var45 809)))
(assert (= "f" (CharAt var5 39)))
(assert (= "6" (CharAt var9 629)))
(assert (= "g" (CharAt var30 586)))
(assert (= "c" (CharAt var17 707)))
(assert (= "P" (CharAt var39 182)))
(assert (= "?" (CharAt var47 245)))
(assert (= "\"" (CharAt var42 452)))
(assert (= "@" (CharAt var51 348)))
(assert (= ">" (CharAt var17 619)))
(assert (= "\\" (CharAt var18 648)))
(assert (= "J" (CharAt var49 436)))
(assert (= "{" (CharAt var4 733)))
(assert (= "|" (CharAt var55 95)))
(assert (= "A" (CharAt var27 705)))
(assert (= "l" (CharAt var52 201)))
(assert (= "=" (CharAt var0 401)))
(assert (= "K" (CharAt var13 498)))
(assert (= "h" (CharAt var9 878)))
(assert (= "v" (CharAt var51 150)))
(assert (= "D" (CharAt var31 955)))
(assert (= ";" (CharAt var19 862)))
(assert (= "(" (CharAt var36 252)))
(assert (= "B" (CharAt var56 797)))
(assert (= "$" (CharAt var52 69)))
(assert (= "p" (CharAt var51 465)))
(assert (= "P" (CharAt var44 853)))
(assert (= "M" (CharAt var20 655)))
(assert (= "1" (CharAt var8 126)))
(assert (= "R" (CharAt var52 191)))
(assert (= "I" (CharAt var30 656)))
(assert (= "D" (CharAt var20 936)))
(assert (= "#" (CharAt var9 59)))
(assert (= "j" (CharAt var19 781)))
(assert (= "c" (CharAt var60 355)))
(assert (= "\"" (CharAt var10 59)))
(assert (= "P" (CharAt var42 572)))
(assert (= "=" (CharAt var37 215)))
(assert (= "[" (CharAt var53 565)))
(assert (= "\\" (CharAt var44 523)))
(assert (= "r" (CharAt var49 181)))
(assert (= "f" (CharAt var14 794)))
(assert (= "E" (CharAt var57 250)))
(assert (= "v" (CharAt var56 495)))
(assert (= "\\" (CharAt var16 483)))
(assert (= "^" (CharAt var23 539)))
(assert (= "D" (CharAt var36 40)))
(assert (= "8" (CharAt var20 712)))
(assert (= ")" (CharAt var42 517)))
(assert (= "E" (CharAt var26 424)))
(assert (= "n" (CharAt var9 142)))
(assert (= "4" (CharAt var47 697)))
(assert (= "P" (CharAt var0 564)))
(assert (= "&" (CharAt var60 937)))
(assert (= "c" (CharAt var42 857)))
(assert (= "7" (CharAt var28 465)))
(assert (= ":" (CharAt var0 134)))
(assert (= "x" (CharAt var54 310)))
(assert (= "7" (CharAt var51 772)))
(assert (= "%" (CharAt var37 285)))
(assert (= "}" (CharAt var0 471)))
(assert (= "j" (CharAt var47 485)))
(assert (= "i" (CharAt var2 100)))
(assert (= "f" (CharAt var50 641)))
(assert (= "k" (CharAt var5 51)))
(assert (= "C" (CharAt var36 167)))
(assert (= ":" (CharAt var46 382)))
(assert (= "'" (CharAt var21 309)))
(assert (= "J" (CharAt var29 704)))
(assert (= ">" (CharAt var9 574)))
(assert (= "%" (CharAt var15 634)))
(assert (= "U" (CharAt var0 450)))
(assert (= "W" (CharAt var51 80)))
(assert (= "R" (CharAt var11 975)))
(assert (= "P" (CharAt var47 217)))
(assert (= "o" (CharAt var42 355)))
(assert (= "h" (CharAt var29 733)))
(assert (= "z" (CharAt var20 302)))
(assert (= "<" (CharAt var55 586)))
(assert (= "u" (CharAt var55 590)))
(assert (= "r" (CharAt var39 128)))
(assert (= "v" (CharAt var51 898)))
(assert (= "e" (CharAt var20 450)))
(assert (= "n" (CharAt var51 988)))
(assert (= "5" (CharAt var19 663)))
(assert (= "R" (CharAt var35 261)))
(assert (= "e" (CharAt var51 76)))
(assert (= "5" (CharAt var53 390)))
(assert (= "5" (CharAt var3 339)))
(assert (= "[" (CharAt var33 449)))
(assert (= "?" (CharAt var3 114)))
(assert (= "]" (CharAt var55 911)))
(assert (= "c" (CharAt var5 225)))
(assert (= "v" (CharAt var25 937)))
(assert (= ":" (CharAt var51 397)))
(assert (= "a" (CharAt var2 798)))
(assert (= "T" (CharAt var20 146)))
(assert (= "%" (CharAt var10 913)))
(assert (= "P" (CharAt var20 816)))
(assert (= "N" (CharAt var4 84)))
(assert (= "-" (CharAt var15 408)))
(assert (= "&" (CharAt var39 730)))
(assert (= "D" (CharAt var47 956)))
(assert (= "/" (CharAt var50 232)))
(assert (= "4" (CharAt var52 260)))
(assert (= "8" (CharAt var13 777)))
(assert (= "]" (CharAt var39 372)))
(assert (= "P" (CharAt var53 964)))
(assert (= "`" (CharAt var38 721)))
(assert (= "|" (CharAt var20 221)))
(assert (= "q" (CharAt var16 641)))
(assert (= "#" (CharAt var22 408)))
(assert (= "\\" (CharAt var31 58)))
(assert (= "k" (CharAt var21 613)))
(assert (= "|" (CharAt var0 724)))
(assert (= "V" (CharAt var12 456)))
(assert (= "&" (CharAt var56 511)))
(assert (= "/" (CharAt var7 134)))
(assert (= "I" (CharAt var42 944)))
(assert (= "H" (CharAt var11 215)))
(assert (= "(" (CharAt var60 147)))
(assert (= "B" (CharAt var51 831)))
(assert (= "*" (CharAt var37 650)))
(assert (= "{" (CharAt var24 7)))
(assert (= "Q" (CharAt var52 758)))
(assert (= "\"" (CharAt var16 642)))
(assert (= "}" (CharAt var10 705)))
(assert (= "l" (CharAt var24 670)))
(assert (= "N" (CharAt var20 673)))
(assert (= "-" (CharAt var44 413)))
(assert (= "P" (CharAt var57 7)))
(assert (= "K" (CharAt var43 243)))
(assert (= "I" (CharAt var47 101)))
(assert (= "'" (CharAt var19 381)))
(assert (= "~" (CharAt var29 397)))
(assert (= "M" (CharAt var60 920)))
(assert (= "r" (CharAt var26 733)))
(assert (= "?" (CharAt var23 543)))
(assert (= "@" (CharAt var44 550)))
(assert (= "1" (CharAt var0 523)))
(assert (= "2" (CharAt var19 941)))
(assert (= "p" (CharAt var41 104)))
(assert (= "?" (CharAt var34 509)))
(assert (= "l" (CharAt var55 580)))
(assert (= "F" (CharAt var45 518)))
(assert (= "o" (CharAt var7 986)))
(assert (= "*" (CharAt var14 91)))
(assert (= "\\" (CharAt var53 117)))
(assert (= "C" (CharAt var53 190)))
(assert (= "/" (CharAt var54 228)))
(assert (= "]" (CharAt var40 623)))
(assert (= "b" (CharAt var10 510)))
(assert (= "-" (CharAt var57 498)))
(assert (= "+" (CharAt var48 430)))
(assert (= "+" (CharAt var54 92)))
(assert (= "7" (CharAt var36 366)))
(assert (= "i" (CharAt var33 850)))
(assert (= "u" (CharAt var6 48)))
(assert (= "6" (CharAt var18 138)))
(assert (= "~" (CharAt var8 579)))
(assert (= "9" (CharAt var25 86)))
(assert (= "S" (CharAt var0 871)))
(assert (= "%" (CharAt var0 368)))
(assert (= "^" (CharAt var15 104)))
(assert (= "3" (CharAt var42 701)))
(assert (= "v" (CharAt var21 772)))
(assert (= "m" (CharAt var55 438)))
(assert (= "I" (CharAt var22 238)))
(assert (= "+" (CharAt var32 226)))
(assert (= "N" (CharAt var33 691)))
(assert (= ">" (CharAt var0 194)))
(assert (= "^" (CharAt var39 331)))
(assert (= "G" (CharAt var19 524)))
(assert (= "$" (CharAt var60 351)))
(assert (= "^" (CharAt var60 545)))
(assert (= "s" (CharAt var53 305)))
(assert (= "," (CharAt var25 397)))
(assert (= "G" (CharAt var51 202)))
(assert (= "Y" (CharAt var43 721)))
(assert (= "C" (CharAt var6 297)))
(assert (= ";" (CharAt var52 790)))
(assert (= "T" (CharAt var12 699)))
(assert (= "A" (CharAt var19 496)))
(assert (= "%" (CharAt var54 397)))
(assert (= "*" (CharAt var21 121)))
(assert (= "~" (CharAt var27 573)))
(assert (= "S" (CharAt var11 232)))
(assert (= "u" (CharAt var20 884)))
(assert (= "+" (CharAt var0 501)))
(assert (= "P" (CharAt var45 374)))
(assert (= "]" (CharAt var60 461)))
(assert (= "\"" (CharAt var5 785)))
(assert (= "y" (CharAt var3 175)))
(assert (= "v" (CharAt var58 747)))
(assert (= "n" (CharAt var48 324)))
(assert (= ")" (CharAt var12 906)))
(assert (= "<" (CharAt var34 893)))
(assert (= "V" (CharAt var59 639)))
(assert (= "F" (CharAt var60 654)))
(assert (= "O" (CharAt var11 713)))
(assert (= "c" (CharAt var24 48)))
(assert (= "d" (CharAt var37 220)))
(assert (= "V" (CharAt var45 437)))
(assert (= "'" (CharAt var20 112)))
(assert (= "-" (CharAt var44 72)))
(assert (= "4" (CharAt var3 563)))
(assert (= "k" (CharAt var50 203)))
(assert (= "j" (CharAt var47 388)))
(assert (= "o" (CharAt var36 401)))
(assert (= "x" (CharAt var12 249)))
(assert (= "*" (CharAt var29 664)))
(assert (= "i" (CharAt var49 850)))
(assert (= "c" (CharAt var11 184)))
(assert (= "A" (CharAt var25 645)))
(assert (= "x" (CharAt var20 594)))
(assert (= "<" (CharAt var59 29)))
(assert (= "M" (CharAt var27 13)))
(assert (= "3" (CharAt var13 144)))
(assert (= "%" (CharAt var47 683)))
(assert (= "6" (CharAt var39 838)))
(assert (= "&" (CharAt var33 619)))
(assert (= "s" (CharAt var27 874)))
(assert (= "a" (CharAt var44 818)))
(assert (= "B" (CharAt var11 933)))
(assert (= "I" (CharAt var46 433)))
(assert (= "6" (CharAt var5 932)))
(assert (= "Y" (CharAt var49 452)))
(assert (= "E" (CharAt var29 782)))
(assert (= "B" (CharAt var43 166)))
(assert (= "n" (CharAt var60 839)))
(assert (= "d" (CharAt var4 790)))
(assert (= "O" (CharAt var7 188)))
(assert (= "h" (CharAt var60 550)))
(assert (= "c" (CharAt var48 48)))
(assert (= "A" (CharAt var39 841)))
(assert (= "'" (CharAt var59 217)))
(assert (= "L" (CharAt var38 838)))
(assert (= "o" (CharAt var57 571)))
(assert (= "3" (CharAt var19 979)))
(assert (= "[" (CharAt var25 78)))
(assert (= "$" (CharAt var47 481)))
(assert (= "E" (CharAt var6 591)))
(assert (= "\\" (CharAt var21 333)))
(assert (= "N" (CharAt var59 844)))
(assert (= "," (CharAt var5 456)))
(assert (= "i" (CharAt var34 79)))
(assert (= "T" (CharAt var15 5)))
(assert (= "$" (CharAt var11 541)))
(assert (= "B" (CharAt var30 697)))
(assert (= "M" (CharAt var18 235)))
(assert (= "/" (CharAt var8 497)))
(assert (= "Z" (CharAt var40 931)))
(assert (= "~" (CharAt var17 929)))
(assert (= ":" (CharAt var12 304)))
(assert (= "g" (CharAt var17 925)))
(assert (= "^" (CharAt var51 257)))
(assert (= "H" (CharAt var33 586)))
(assert (= "m" (CharAt var27 416)))
(assert (= ";" (CharAt var14 443)))
(assert (= "]" (CharAt var42 532)))
(assert (= "i" (CharAt var0 575)))
(assert (= "R" (CharAt var20 286)))
(assert (= "2" (CharAt var15 545)))
(assert (= "T" (CharAt var40 662)))
(assert (= "0" (CharAt var55 212)))
(assert (= "\"" (CharAt var32 217)))
(assert (= "}" (CharAt var32 83)))
(assert (= "\"" (CharAt var26 741)))
(assert (= "9" (CharAt var38 246)))
(assert (= "s" (CharAt var8 814)))
(assert (= ">" (CharAt var45 748)))
(assert (= "E" (CharAt var27 173)))
(assert (= "K" (CharAt var27 385)))
(assert (= "/" (CharAt var12 276)))
(assert (= "L" (CharAt var46 336)))
(assert (= "m" (CharAt var18 288)))
(assert (= "V" (CharAt var28 653)))
(assert (= "G" (CharAt var37 862)))
(assert (= "a" (CharAt var4 390)))
(assert (= "L" (CharAt var20 266)))
(assert (= "H" (CharAt var1 358)))
(assert (= "d" (CharAt var9 92)))
(assert (= "|" (CharAt var1 441)))
(assert (= "7" (CharAt var51 452)))
(assert (= "M" (CharAt var25 676)))
(assert (= "N" (CharAt var26 725)))
(assert (= "o" (CharAt var36 345)))
(assert (= "O" (CharAt var18 29)))
(assert (= "J" (CharAt var18 508)))
(assert (= "Z" (CharAt var50 255)))
(assert (= "<" (CharAt var2 776)))
(assert (= "M" (CharAt var32 413)))
(assert (= ";" (CharAt var26 521)))
(assert (= "g" (CharAt var11 915)))
(assert (= "q" (CharAt var4 109)))
(assert (= "g" (CharAt var40 604)))
(assert (= "-" (CharAt var46 919)))
(assert (= "o" (CharAt var16 65)))
(assert (= "K" (CharAt var54 756)))
(assert (= "Z" (CharAt var21 872)))
(assert (= "5" (CharAt var59 157)))
(assert (= "%" (CharAt var23 292)))
(assert (= "a" (CharAt var30 50)))
(assert (= "g" (CharAt var57 598)))
(assert (= "O" (CharAt var35 829)))
(assert (= "t" (CharAt var44 172)))
(assert (= "f" (CharAt var30 413)))
(assert (= "{" (CharAt var49 174)))
(assert (= "@" (CharAt var53 275)))
(assert (= "?" (CharAt var52 80)))
(assert (= "l" (CharAt var18 952)))
(assert (= "y" (CharAt var32 197)))
(assert (= "%" (CharAt var18 783)))
(assert (= "\\" (CharAt var8 238)))
(assert (= "z" (CharAt var16 293)))
(assert (= "V" (CharAt var59 531)))
(assert (= "L" (CharAt var15 682)))
(assert (= "L" (CharAt var9 106)))
(assert (= "b" (CharAt var37 996)))
(assert (= "{" (CharAt var11 790)))
(assert (= "O" (CharAt var23 19)))
(assert (= "D" (CharAt var58 221)))
(assert (= "}" (CharAt var55 56)))
(assert (= "k" (CharAt var26 116)))
(assert (= "@" (CharAt var40 93)))
(assert (= "O" (CharAt var0 230)))
(assert (= "O" (CharAt var46 371)))
(assert (= "k" (CharAt var37 538)))
(assert (= "$" (CharAt var24 947)))
(assert (= "D" (CharAt var1 172)))
(check-sat)